c numero: 32
c nombre: n-40-d-0.1
c densidad: 0.1
p edges 40 64
e 1 4
e 1 11
e 1 14
e 1 35
e 2 10
e 2 21
e 2 23
e 2 27
e 2 40
e 3 5
e 3 16
e 3 26
e 3 28
e 4 10
e 4 17
e 4 39
e 6 15
e 6 19
e 7 12
e 7 19
e 7 22
e 7 38
e 8 16
e 10 13
e 11 33
e 11 34
e 12 21
e 12 40
e 13 32
e 13 39
e 14 28
e 15 16
e 15 19
e 15 39
e 16 20
e 16 27
e 17 38
e 18 20
e 18 31
e 19 29
e 19 36
e 21 30
e 21 36
e 22 28
e 22 33
e 23 25
e 23 37
e 24 25
e 24 27
e 24 37
e 25 39
e 26 28
e 26 36
e 26 39
e 27 31
e 28 34
e 30 31
e 30 34
e 31 34
e 31 36
e 32 39
e 33 39
e 33 40
e 37 38
